benchmarks_vrp/CMT5/no_cluster/CMT5_15.vrp
NAME: CMT5_15
TYPE: CVRP
COMMENT: 1291.29 - Cluster Nr.15
DIMENSION: 11
CAPACITY: 200
EDGE_WEIGHT_TYPE: EUC_2D
NODE_COORD_TYPE: TWOD_COORDS
NODE_COORD_SECTION: 
10 63 65
5 62 63
9 55 65
8 55 60
1 35 35
11 67 5
2 63 69
6 52 64
4 62 57
7 57 68
3 57 58
DEPOT_SECTION: 
1
-1
DEMAND_SECTION: 
1 0
6 16
3 28
9 37
10 8
5 17
2 6
11 25
4 31
8 16
7 15
EOF
