benchmarks_vrp/CMT5/no_cluster/CMT5_15.tour
NAME: CMT5_15 solution
TYPE: TOUR
TOUR_SECTION:
1 3 8 6 9 7 2 10 5 4 11 -1
-1
EOF